 # Version information for this restart file 
 # current date 2016-08-08 16:51:28.548
 # current working dir /gs/project/mfj-281-aa/rzk/cp2k/merge_august_2016/trunk/cp2k/tests/QS/regtest-ot
 # Program compiled at                              Mon Aug  8 14:57:42 EDT 2016
 # Program compiled on                                               lg-1r17-n04
 # Program compiled for                              Linux-x86-64-intel-intelmpi
 # Source code revision number                                         svn:17180
 &GLOBAL
   PRINT_LEVEL  MEDIUM
   PROJECT_NAME H2O-geo-ot-mols
   RUN_TYPE  GEO_OPT
 &END GLOBAL
 &MOTION
   &GEO_OPT
     OPTIMIZER  BFGS
     MAX_ITER  2
     STEP_START_VAL  1
   &END GEO_OPT
 &END MOTION
 &FORCE_EVAL
   METHOD  QS
   &DFT
     BASIS_SET_FILE_NAME GTH_BASIS_SETS
     POTENTIAL_FILE_NAME POTENTIAL
     &SCF
       MAX_SCF  3
       EPS_SCF     9.9999999999999995E-07
       SCF_GUESS  ATOMIC
       &OT  T
       &END OT
     &END SCF
     &QS
       EPS_DEFAULT     9.9999999999999998E-13
       MAP_CONSISTENT  T
       EXTRAPOLATION  PS
       EXTRAPOLATION_ORDER  2
     &END QS
     &MGRID
       CUTOFF     2.0000000000000000E+02
     &END MGRID
     &XC
       DENSITY_CUTOFF     1.0000000000000000E-10
       GRADIENT_CUTOFF     1.0000000000000000E-10
       TAU_CUTOFF     1.0000000000000000E-10
       &XC_FUNCTIONAL  NO_SHORTCUT
         &PADE  T
         &END PADE
       &END XC_FUNCTIONAL
     &END XC
     &LOCALIZE  T
       &PRINT
         &MOLECULAR_STATES  SILENT
         &END MOLECULAR_STATES
       &END PRINT
     &END LOCALIZE
     &PRINT
       &MO_CUBES  SILENT
         WRITE_CUBE  F
         NHOMO  1
       &END MO_CUBES
     &END PRINT
   &END DFT
   &SUBSYS
     &CELL
       A     1.2000000000000000E+01    0.0000000000000000E+00    0.0000000000000000E+00
       B     0.0000000000000000E+00    6.0000000000000000E+00    0.0000000000000000E+00
       C     0.0000000000000000E+00    0.0000000000000000E+00    6.0000000000000000E+00
       MULTIPLE_UNIT_CELL  1 1 1
     &END CELL
     &COORD
O   -4.1088990833513646E-02   -1.5516509075087110E-02   -7.1725234574590499E-02 H2O 1
H    8.0507073175133975E-02   -8.2062702746734240E-01    4.8596683375863542E-01 H2O 1
H   -1.2763257813997873E-02    8.3575004972935318E-01    5.5511802741589877E-01 H2O 1
O    4.2500000000000000E+00    4.1354775563154970E-02    2.9320521312501249E-02 H2O 2
H    3.8853259543548737E+00   -9.8895881782264972E-01    3.1468146016670956E-01 H2O 2
H    3.8394341236529828E+00    9.5014983006469123E-01    6.2750418764911686E-01 H2O 2
     &END COORD
     &KIND H
       BASIS_SET DZVP-GTH
       POTENTIAL GTH-BLYP-q1
       &POTENTIAL
 1
  0.2000000000000000E+00 2 -0.4195961470000000E+01  0.7304982100000000E+00
 0
         # Potential name:  GTH-BLYP-Q1  for symbol:  H
         # Potential read from the potential filename: POTENTIAL
       &END POTENTIAL
     &END KIND
     &KIND O
       BASIS_SET DZVP-GTH
       POTENTIAL GTH-BLYP-q6
       &POTENTIAL
 2 4
  0.2434202600000000E+00 2 -0.1699189235000000E+02  0.2566142060000000E+01
 2
  0.2208314000000000E+00 1  0.1838885102000000E+02
  0.2172007000000000E+00 0
         # Potential name:  GTH-BLYP-Q6  for symbol:  O
         # Potential read from the potential filename: POTENTIAL
       &END POTENTIAL
     &END KIND
     &TOPOLOGY
       NUMBER_OF_ATOMS  6
       CONN_FILE_FORMAT  GENERATE
       MULTIPLE_UNIT_CELL  1 1 1
     &END TOPOLOGY
   &END SUBSYS
 &END FORCE_EVAL
