&GLOBAL
  PROJECT LOC-CAYLEY
  RUN_TYPE ENERGY
  PRINT_LEVEL LOW
&END GLOBAL
&FORCE_EVAL
  METHOD Quickstep
  &DFT
    &PRINT
      &MO_CUBES     ! Controls the printing of the MOs in the output and in the *.cube files
      NHOMO 5       ! Number of HOMOs to be printed (count starts from the highest occupied orbital. -1 = all). Here 5.
      NLUMO 5       ! Number of LUMOs to be printed (count starts from the lowest unoccupied orbital). Here 5. 
      &END MO_CUBES
    &END PRINT
    BASIS_SET_FILE_NAME BASIS_SET
    POTENTIAL_FILE_NAME POTENTIAL
    &MGRID
      CUTOFF 200
    &END MGRID
    &QS
      EPS_DEFAULT 1.0E-11
    &END QS
    &SCF
      EPS_SCF 1.0E-4
      SCF_GUESS ATOMIC
    &END SCF
    &XC
      &XC_FUNCTIONAL Pade
      &END XC_FUNCTIONAL
    &END XC
    &LOCALIZE
      METHOD CAYLEY
      &CAYLEY_OPTIMIZER
          MAX_ITER                    1000
          EPS_ERROR                   1.0E-6
          LIN_SEARCH_EPS_ERROR        1.0E-3
          LIN_SEARCH_STEP_SIZE_GUESS  0.0001
          MAX_ITER_OUTER_LOOP         0
          PRECONDITIONER              NONE
          CONJUGATOR                  POLAK_RIBIERE
      &END CAYLEY_OPTIMIZER
      &PRINT
        &WANNIER_CUBES
        &END
      &END
      !STATES ALL
      !&PRINT 
      !  &PROGRAM_RUN_INFO LOW
      !  &END PROGRAM_RUN_INFO
      !&END PRINT
      !&PRINT
      !  &WANNIER_CENTERS
      !    IONS+CENTERS
      !    FORMAT XMOL
      !  &END
      !  &MOLECULAR_DIPOLES
      !    COMMON_ITERATION_LEVELS 2
      !    PERIODIC
      !  &END
      !  &TOTAL_DIPOLE
      !    COMMON_ITERATION_LEVELS 2
      !    PERIODIC T
      !    REFERENCE COAC
      !  &END
      !&END
    &END
  &END DFT
  &SUBSYS
    &CELL
      ABC 20.0 20.0 20.0
    &END CELL
    &COORD
       C   16.279000000000000   20.559000000000001   19.427000000000000
       C   17.513999999999999   19.649999999999999   19.500000000000000
       C   18.777000000000001   20.466999999999999   19.786000000000001
       C   19.998999999999999   19.544000000000000   19.855000000000000
       C   21.262000000000000   20.361999999999998   20.143000000000001
       C   22.484000000000002   19.440999999999999   20.210999999999999
       C   23.747000000000000   20.256000000000000   20.498999999999999
       H   16.155000000000001   21.076000000000001   20.379000000000001
       H   15.394000000000000   19.951000000000001   19.234000000000002
       H   16.399000000000001   21.292000000000002   18.628000000000000
       H   17.626999999999999   19.129999999999999   18.547000000000001
       H   17.367999999999999   18.917000000000002   20.294000000000000
       H   18.664999999999999   20.986000000000001   20.739000000000001
       H   18.923999999999999   21.199000000000002   18.992000000000001
       H   20.114000000000001   19.026000000000000   18.902000000000001
       H   19.853999999999999   18.811000000000000   20.649999999999999
       H   21.146999999999998   20.879999999999999   21.096000000000000
       H   21.407000000000000   21.094000000000001   19.347999999999999
       H   22.603000000000002   18.922000000000001   19.259000000000000
       H   22.343000000000000   18.707999999999998   21.007000000000001
       H   23.640999999999998   20.773000000000000   21.452999999999999
       H   23.901000000000000   20.988000000000000   19.704999999999998
       H   24.606000000000002   19.585999999999999   20.544000000000000
    &END COORD
    &KIND C
      BASIS_SET DZVP-GTH-PADE
      POTENTIAL GTH-BLYP-q4
    &END KIND
    &KIND H
      BASIS_SET DZVP-GTH-PADE
      POTENTIAL GTH-PADE-q1
    &END KIND
    &KIND O
      BASIS_SET DZVP-GTH-PADE
      POTENTIAL GTH-PADE-q6
    &END KIND
  &END SUBSYS
&END FORCE_EVAL
