&GLOBAL
  PROJECT hf-chain 
  RUN_TYPE ENERGY
  PRINT_LEVEL LOW
&END GLOBAL
&FORCE_EVAL
  METHOD QS
  &DFT
    POTENTIAL_FILE_NAME GTH_POTENTIALS
    BASIS_SET_FILE_NAME GTH_BASIS_SETS
    &QS
      ALMO_SCF T
      EPS_DEFAULT 1.0E-8 ! 1.0E-12
    &END QS
    
    &ALMO_SCF
      EPS_FILTER                 1.0E-8
      ALMO_ALGORITHM             DIAG
      ALMO_SCF_GUESS             ATOMIC
      RETURN_ORTHOGONALIZED_MOS  F

      &ALMO_OPTIMIZER_DIIS
        MAX_ITER                 50
        EPS_ERROR                1.0E-7
        N_DIIS                   7
      &END ALMO_OPTIMIZER_DIIS
      
      DELOCALIZE_METHOD          XALMO_SCF
      XALMO_R_CUTOFF_FACTOR      1.2
      
      &XALMO_OPTIMIZER_PCG
        MAX_ITER                 100
        EPS_ERROR                1.0E-7
        CONJUGATOR               FLETCHER
        LIN_SEARCH_EPS_ERROR     0.05
        LIN_SEARCH_STEP_SIZE_GUESS 0.1
        MAX_ITER_OUTER_LOOP      2
      &END XALMO_OPTIMIZER_PCG
      
    &END ALMO_SCF
    
    &MGRID
      CUTOFF 320
      NGRIDS 5
    &END MGRID
    &XC
      &XC_FUNCTIONAL BLYP
      &END XC_FUNCTIONAL
    &END XC
  &END DFT
  &SUBSYS
    &CELL
@INCLUDE 'FH-chain.cell'
      MULTIPLE_UNIT_CELL 1 1 1
    &END CELL
    &TOPOLOGY
      MULTIPLE_UNIT_CELL 1 1 1
    &END
    &COORD
@INCLUDE 'FH-chain.xyz'
    &END COORD
    &KIND H
      BASIS_SET DZVP-GTH
      POTENTIAL GTH-BLYP-q1
    &END KIND
    &KIND F
      BASIS_SET DZVP-GTH
      POTENTIAL GTH-BLYP-q7
    &END KIND
  &END SUBSYS
&END FORCE_EVAL

