&GLOBAL
  PROJECT Si
  RUN_TYPE ENERGY
  PRINT_LEVEL LOW
&END GLOBAL
&FORCE_EVAL
  METHOD QS
  &DFT
    BASIS_SET_FILE_NAME GTH_BASIS_SETS
    POTENTIAL_FILE_NAME POTENTIAL
    &MGRID
      CUTOFF 500
      NGRIDS 4
    &END MGRID
    &QS
      ALMO_SCF T
      EPS_DEFAULT 1.0E-13
    &END QS

    &ALMO_SCF

      EPS_FILTER                 5.0E-12
      ALMO_ALGORITHM             PCG
      DELOCALIZE_METHOD          FULL_X
      XALMO_R_CUTOFF_FACTOR      0.6
      ALMO_SCF_GUESS             ATOMIC

      &ALMO_OPTIMIZER_DIIS
        MAX_ITER                 100
        N_DIIS                   5
        EPS_ERROR                1.0E-6
      &END ALMO_OPTIMIZER_DIIS

      &ALMO_OPTIMIZER_PCG
        MAX_ITER                 15
        EPS_ERROR                1.0E-5
        CONJUGATOR               HESTENES_STIEFEL
        PRECONDITIONER           DEFAULT
        LIN_SEARCH_EPS_ERROR     0.1
        LIN_SEARCH_STEP_SIZE_GUESS 0.1
        MAX_ITER_OUTER_LOOP      5
      &END ALMO_OPTIMIZER_PCG

      &XALMO_OPTIMIZER_PCG
        MAX_ITER                 25
        EPS_ERROR                1.0E-5
        CONJUGATOR               HESTENES_STIEFEL
        PRECONDITIONER           DEFAULT
        LIN_SEARCH_EPS_ERROR     0.05
        LIN_SEARCH_STEP_SIZE_GUESS 0.1
        MAX_ITER_OUTER_LOOP      10
      &END XALMO_OPTIMIZER_PCG
      
    &END ALMO_SCF

    &SCF
      SCF_GUESS ATOMIC
      EPS_SCF 1.0E-7
      MAX_SCF 30
      &OT ON
        !ALGORITHM IRAC
        !MINIMIZER DIIS
        PRECONDITIONER FULL_ALL
      &END OT
      &OUTER_SCF
         EPS_SCF 1.0E-7
         MAX_SCF 5
      &END
      &PRINT
        &RESTART OFF
        &END
      &END
    &END SCF
    &XC
      &XC_FUNCTIONAL PBE
      &END XC_FUNCTIONAL
    &END XC
  &END DFT
  &SUBSYS
    &CELL
      ABC 5.430710 5.430710 5.430710
      MULTIPLE_UNIT_CELL 1 1 1
    &END CELL
    &TOPOLOGY
      MULTIPLE_UNIT_CELL 1 1 1
    &END
    &COORD
      SCALED T
      Si         0.000000      0.000000      0.000000
      Si         0.000000      0.500000      0.500000
      Si         0.500000      0.000000      0.500000
      Si         0.500000      0.500000      0.000000
      Si         0.250000      0.250000      0.250000
      Si         0.250000      0.750000      0.750000
      Si         0.750000      0.250000      0.750000
      Si         0.750000      0.750000      0.250000
    &END COORD
    &KIND Si
      BASIS_SET DZVP-GTH
      POTENTIAL GTH-PBE-q4
    &END KIND
  &END SUBSYS
&END FORCE_EVAL

